c Reduced graph for GEOM70a_0 generated by Cyril Grelier
p edge 69 450
e 1 2
e 1 9
e 1 10
e 1 15
e 1 17
e 1 19
e 1 20
e 1 21
e 1 26
e 1 27
e 1 28
e 1 30
e 1 32
e 1 34
e 1 38
e 1 43
e 1 44
e 1 45
e 1 46
e 1 47
e 2 9
e 2 10
e 2 15
e 2 17
e 2 19
e 2 20
e 2 21
e 2 26
e 2 27
e 2 28
e 2 30
e 2 32
e 2 38
e 2 43
e 2 44
e 2 45
e 2 46
e 2 47
e 2 50
e 3 4
e 3 5
e 3 6
e 3 7
e 3 8
e 3 11
e 3 12
e 3 13
e 3 14
e 3 18
e 3 25
e 3 31
e 3 33
e 3 39
e 3 41
e 3 51
e 3 53
e 3 57
e 3 62
e 4 5
e 4 6
e 4 7
e 4 8
e 4 11
e 4 12
e 4 13
e 4 14
e 4 18
e 4 23
e 4 31
e 4 33
e 4 39
e 4 41
e 4 51
e 4 53
e 4 57
e 4 62
e 5 6
e 5 7
e 5 8
e 5 11
e 5 12
e 5 13
e 5 14
e 5 18
e 5 25
e 5 31
e 5 33
e 5 48
e 5 51
e 5 55
e 5 59
e 5 62
e 6 7
e 6 8
e 6 11
e 6 12
e 6 13
e 6 14
e 6 18
e 6 25
e 6 31
e 6 33
e 6 41
e 6 48
e 6 52
e 6 55
e 6 59
e 7 8
e 7 11
e 7 12
e 7 13
e 7 14
e 7 18
e 7 25
e 7 31
e 7 33
e 7 48
e 7 52
e 7 55
e 7 59
e 8 11
e 8 12
e 8 13
e 8 14
e 8 18
e 8 25
e 8 31
e 8 33
e 8 48
e 8 52
e 8 55
e 8 59
e 9 10
e 9 15
e 9 17
e 9 19
e 9 20
e 9 23
e 9 26
e 9 27
e 9 28
e 9 30
e 9 34
e 9 39
e 9 47
e 9 53
e 9 57
e 10 15
e 10 17
e 10 19
e 10 23
e 10 26
e 10 28
e 10 30
e 10 34
e 10 39
e 10 41
e 10 47
e 10 49
e 10 53
e 10 57
e 11 12
e 11 13
e 11 14
e 11 18
e 11 25
e 11 31
e 11 48
e 11 52
e 11 55
e 11 59
e 12 13
e 12 25
e 12 31
e 12 33
e 12 48
e 12 51
e 12 55
e 12 59
e 12 62
e 13 14
e 13 18
e 13 25
e 13 33
e 13 40
e 13 41
e 13 52
e 13 56
e 14 18
e 14 30
e 14 33
e 14 39
e 14 40
e 14 41
e 14 53
e 14 57
e 15 17
e 15 19
e 15 20
e 15 21
e 15 26
e 15 27
e 15 28
e 15 32
e 15 34
e 15 44
e 15 46
e 15 47
e 16 22
e 16 24
e 16 29
e 16 35
e 16 36
e 16 37
e 16 40
e 16 42
e 16 43
e 16 45
e 16 50
e 16 54
e 16 56
e 16 58
e 16 60
e 16 61
e 17 19
e 17 20
e 17 21
e 17 26
e 17 27
e 17 28
e 17 32
e 17 34
e 17 44
e 17 46
e 17 47
e 18 22
e 18 30
e 18 35
e 18 40
e 18 41
e 18 52
e 18 56
e 19 20
e 19 21
e 19 26
e 19 27
e 19 28
e 19 32
e 19 34
e 19 44
e 19 46
e 19 47
e 20 21
e 20 26
e 20 27
e 20 28
e 20 32
e 20 34
e 20 44
e 20 46
e 20 47
e 21 32
e 21 37
e 21 38
e 21 43
e 21 44
e 21 45
e 21 46
e 21 50
e 21 58
e 22 24
e 22 29
e 22 35
e 22 36
e 22 37
e 22 40
e 22 42
e 22 52
e 22 54
e 22 56
e 22 60
e 22 61
e 22 68
e 23 39
e 23 41
e 23 49
e 23 51
e 23 53
e 23 57
e 23 63
e 23 64
e 23 65
e 23 66
e 23 67
e 23 69
e 24 29
e 24 35
e 24 36
e 24 37
e 24 40
e 24 42
e 24 43
e 24 45
e 24 50
e 24 54
e 24 58
e 24 60
e 24 61
e 25 31
e 25 33
e 25 48
e 25 55
e 25 59
e 25 62
e 26 27
e 26 28
e 26 32
e 26 34
e 26 46
e 26 47
e 27 28
e 27 32
e 27 34
e 27 44
e 27 46
e 27 47
e 28 32
e 28 34
e 28 46
e 28 47
e 29 36
e 29 37
e 29 38
e 29 42
e 29 43
e 29 45
e 29 50
e 29 54
e 29 58
e 29 60
e 29 61
e 30 37
e 30 38
e 30 39
e 30 41
e 30 43
e 30 45
e 30 53
e 30 57
e 31 33
e 31 48
e 31 51
e 31 55
e 31 62
e 32 38
e 32 44
e 32 46
e 33 51
e 33 62
e 34 47
e 34 49
e 34 64
e 35 36
e 35 40
e 35 42
e 35 52
e 35 54
e 35 56
e 35 60
e 35 61
e 35 68
e 36 40
e 36 42
e 36 54
e 36 56
e 36 60
e 36 61
e 36 68
e 37 38
e 37 43
e 37 45
e 37 50
e 37 54
e 37 58
e 38 43
e 38 44
e 38 45
e 38 50
e 38 58
e 39 41
e 39 49
e 39 51
e 39 53
e 39 57
e 40 42
e 40 52
e 40 56
e 40 68
e 41 53
e 41 57
e 42 54
e 42 56
e 42 60
e 42 61
e 42 68
e 43 45
e 43 50
e 43 58
e 44 46
e 44 50
e 45 50
e 45 58
e 48 55
e 48 59
e 48 62
e 49 53
e 49 63
e 49 64
e 49 65
e 49 66
e 49 67
e 49 69
e 50 58
e 51 62
e 51 63
e 51 65
e 52 56
e 52 68
e 53 57
e 54 58
e 54 60
e 54 61
e 55 59
e 56 68
e 60 61
e 63 64
e 63 65
e 63 66
e 63 67
e 63 69
e 64 65
e 64 66
e 64 67
e 64 69
e 65 66
e 65 67
e 65 69
e 66 67
e 66 69
e 67 69
